NAME : brazil58.39240.tour
COMMENT : Cost = 11982_39240
COMMENT : Found by LKH [Keld Helsgaun] Thu Nov 16 17:25:38 2017
TYPE : TOUR
DIMENSION : 62
TOUR_SECTION
1
7
31
38
8
59
18
4
50
53
20
32
9
25
40
13
61
23
5
55
54
2
41
48
39
11
16
42
22
44
60
24
57
12
27
43
49
47
51
52
10
35
3
29
21
36
17
33
45
56
46
34
15
37
14
28
6
19
26
58
62
30
-1
EOF
